NAME : X-n219-k73
COMMENT : "Generated by Uchoa, Pecin, Pessoa, Poggi, Subramanian, and Vidal (2013)"
TYPE : CVRP
DIMENSION : 219
EDGE_WEIGHT_TYPE : EUC_2D
CAPACITY : 3
NODE_COORD_SECTION
1 0 0
2 18 761
3 835 397
4 299 16
5 31 168
6 142 257
7 242 984
8 612 357
9 663 812
10 105 188
11 487 636
12 993 703
13 672 148
14 506 259
15 953 706
16 888 203
17 107 534
18 772 692
19 475 182
20 828 775
21 719 220
22 655 722
23 844 197
24 918 600
25 460 844
26 739 102
27 301 523
28 341 627
29 989 936
30 935 602
31 44 72
32 861 67
33 163 416
34 981 503
35 722 397
36 317 903
37 547 95
38 944 106
39 935 192
40 128 376
41 908 176
42 720 226
43 738 793
44 791 498
45 712 751
46 530 693
47 141 673
48 380 544
49 634 301
50 427 853
51 606 949
52 47 557
53 48 202
54 791 67
55 546 876
56 526 842
57 535 216
58 828 214
59 829 352
60 623 473
61 374 1000
62 74 187
63 275 415
64 726 789
65 51 597
66 894 395
67 159 743
68 301 893
69 755 946
70 978 261
71 709 153
72 391 153
73 876 370
74 846 725
75 604 107
76 117 709
77 507 89
78 348 744
79 476 204
80 181 957
81 948 710
82 158 788
83 414 685
84 358 66
85 196 732
86 283 343
87 456 931
88 5 468
89 459 43
90 555 414
91 94 964
92 558 360
93 641 424
94 132 16
95 777 947
96 25 205
97 852 45
98 5 686
99 400 682
100 501 234
101 905 968
102 492 971
103 817 114
104 651 941
105 817 643
106 735 937
107 333 829
108 223 584
109 306 412
110 209 663
111 206 549
112 542 691
113 296 10
114 215 747
115 148 641
116 9 553
117 411 59
118 382 800
119 824 612
120 608 727
121 481 574
122 169 950
123 350 608
124 396 536
125 36 459
126 359 339
127 798 917
128 10 569
129 813 10
130 569 627
131 692 467
132 166 178
133 247 413
134 738 487
135 508 327
136 158 986
137 983 244
138 637 109
139 177 207
140 357 374
141 361 972
142 365 701
143 582 957
144 712 996
145 932 452
146 847 981
147 60 66
148 252 267
149 944 435
150 338 688
151 900 168
152 583 871
153 852 59
154 921 72
155 845 534
156 387 253
157 812 354
158 5 404
159 590 575
160 930 128
161 184 742
162 832 466
163 285 346
164 548 976
165 32 531
166 966 58
167 31 40
168 162 539
169 621 425
170 802 495
171 385 493
172 769 329
173 921 15
174 64 106
175 854 678
176 943 122
177 103 285
178 304 739
179 398 212
180 335 459
181 43 108
182 400 255
183 935 851
184 179 147
185 822 749
186 60 32
187 829 992
188 783 760
189 218 360
190 321 463
191 403 172
192 32 134
193 218 490
194 44 456
195 430 570
196 896 875
197 509 572
198 424 936
199 639 505
200 914 852
201 984 435
202 479 341
203 207 937
204 709 700
205 235 795
206 557 130
207 270 964
208 482 320
209 60 761
210 836 272
211 413 327
212 509 379
213 961 329
214 819 754
215 176 910
216 648 809
217 640 892
218 838 79
219 552 232
PICKUP_AND_DELIVERY_SECTION
1 0 0 1000000000 0 0 0
2 0 0 1000000000 0 0 1
3 0 0 1000000000 0 1 0
4 0 0 1000000000 0 0 1
5 0 0 1000000000 0 1 0
6 0 0 1000000000 0 0 1
7 0 0 1000000000 0 1 0
8 0 0 1000000000 0 0 1
9 0 0 1000000000 0 1 0
10 0 0 1000000000 0 0 1
11 0 0 1000000000 0 1 0
12 0 0 1000000000 0 0 1
13 0 0 1000000000 0 1 0
14 0 0 1000000000 0 0 1
15 0 0 1000000000 0 1 0
16 0 0 1000000000 0 0 1
17 0 0 1000000000 0 1 0
18 0 0 1000000000 0 0 1
19 0 0 1000000000 0 1 0
20 0 0 1000000000 0 0 1
21 0 0 1000000000 0 1 0
22 0 0 1000000000 0 0 1
23 0 0 1000000000 0 1 0
24 0 0 1000000000 0 0 1
25 0 0 1000000000 0 1 0
26 0 0 1000000000 0 0 1
27 0 0 1000000000 0 1 0
28 0 0 1000000000 0 0 1
29 0 0 1000000000 0 1 0
30 0 0 1000000000 0 0 1
31 0 0 1000000000 0 1 0
32 0 0 1000000000 0 0 1
33 0 0 1000000000 0 1 0
34 0 0 1000000000 0 0 1
35 0 0 1000000000 0 1 0
36 0 0 1000000000 0 0 1
37 0 0 1000000000 0 1 0
38 0 0 1000000000 0 0 1
39 0 0 1000000000 0 1 0
40 0 0 1000000000 0 0 1
41 0 0 1000000000 0 1 0
42 0 0 1000000000 0 0 1
43 0 0 1000000000 0 1 0
44 0 0 1000000000 0 0 1
45 0 0 1000000000 0 1 0
46 0 0 1000000000 0 0 1
47 0 0 1000000000 0 1 0
48 0 0 1000000000 0 0 1
49 0 0 1000000000 0 1 0
50 0 0 1000000000 0 0 1
51 0 0 1000000000 0 1 0
52 0 0 1000000000 0 0 1
53 0 0 1000000000 0 1 0
54 0 0 1000000000 0 0 1
55 0 0 1000000000 0 1 0
56 0 0 1000000000 0 0 1
57 0 0 1000000000 0 1 0
58 0 0 1000000000 0 0 1
59 0 0 1000000000 0 1 0
60 0 0 1000000000 0 0 1
61 0 0 1000000000 0 1 0
62 0 0 1000000000 0 0 1
63 0 0 1000000000 0 1 0
64 0 0 1000000000 0 0 1
65 0 0 1000000000 0 1 0
66 0 0 1000000000 0 0 1
67 0 0 1000000000 0 1 0
68 0 0 1000000000 0 0 1
69 0 0 1000000000 0 1 0
70 0 0 1000000000 0 0 1
71 0 0 1000000000 0 1 0
72 0 0 1000000000 0 0 1
73 0 0 1000000000 0 1 0
74 0 0 1000000000 0 0 1
75 0 0 1000000000 0 1 0
76 0 0 1000000000 0 0 1
77 0 0 1000000000 0 1 0
78 0 0 1000000000 0 0 1
79 0 0 1000000000 0 1 0
80 0 0 1000000000 0 0 1
81 0 0 1000000000 0 1 0
82 0 0 1000000000 0 0 1
83 0 0 1000000000 0 1 0
84 0 0 1000000000 0 0 1
85 0 0 1000000000 0 1 0
86 0 0 1000000000 0 0 1
87 0 0 1000000000 0 1 0
88 0 0 1000000000 0 0 1
89 0 0 1000000000 0 1 0
90 0 0 1000000000 0 0 1
91 0 0 1000000000 0 1 0
92 0 0 1000000000 0 0 1
93 0 0 1000000000 0 1 0
94 0 0 1000000000 0 0 1
95 0 0 1000000000 0 1 0
96 0 0 1000000000 0 0 1
97 0 0 1000000000 0 1 0
98 0 0 1000000000 0 0 1
99 0 0 1000000000 0 1 0
100 0 0 1000000000 0 0 1
101 0 0 1000000000 0 1 0
102 0 0 1000000000 0 0 1
103 0 0 1000000000 0 1 0
104 0 0 1000000000 0 0 1
105 0 0 1000000000 0 1 0
106 0 0 1000000000 0 0 1
107 0 0 1000000000 0 1 0
108 0 0 1000000000 0 0 1
109 0 0 1000000000 0 1 0
110 0 0 1000000000 0 0 1
111 0 0 1000000000 0 1 0
112 0 0 1000000000 0 0 1
113 0 0 1000000000 0 1 0
114 0 0 1000000000 0 0 1
115 0 0 1000000000 0 1 0
116 0 0 1000000000 0 0 1
117 0 0 1000000000 0 1 0
118 0 0 1000000000 0 0 1
119 0 0 1000000000 0 1 0
120 0 0 1000000000 0 0 1
121 0 0 1000000000 0 1 0
122 0 0 1000000000 0 0 1
123 0 0 1000000000 0 1 0
124 0 0 1000000000 0 0 1
125 0 0 1000000000 0 1 0
126 0 0 1000000000 0 0 1
127 0 0 1000000000 0 1 0
128 0 0 1000000000 0 0 1
129 0 0 1000000000 0 1 0
130 0 0 1000000000 0 0 1
131 0 0 1000000000 0 1 0
132 0 0 1000000000 0 0 1
133 0 0 1000000000 0 1 0
134 0 0 1000000000 0 0 1
135 0 0 1000000000 0 1 0
136 0 0 1000000000 0 0 1
137 0 0 1000000000 0 1 0
138 0 0 1000000000 0 0 1
139 0 0 1000000000 0 1 0
140 0 0 1000000000 0 0 1
141 0 0 1000000000 0 1 0
142 0 0 1000000000 0 0 1
143 0 0 1000000000 0 1 0
144 0 0 1000000000 0 0 1
145 0 0 1000000000 0 1 0
146 0 0 1000000000 0 0 1
147 0 0 1000000000 0 1 0
148 0 0 1000000000 0 0 1
149 0 0 1000000000 0 1 0
150 0 0 1000000000 0 0 1
151 0 0 1000000000 0 1 0
152 0 0 1000000000 0 0 1
153 0 0 1000000000 0 1 0
154 0 0 1000000000 0 0 1
155 0 0 1000000000 0 1 0
156 0 0 1000000000 0 0 1
157 0 0 1000000000 0 1 0
158 0 0 1000000000 0 0 1
159 0 0 1000000000 0 1 0
160 0 0 1000000000 0 0 1
161 0 0 1000000000 0 1 0
162 0 0 1000000000 0 0 1
163 0 0 1000000000 0 1 0
164 0 0 1000000000 0 0 1
165 0 0 1000000000 0 1 0
166 0 0 1000000000 0 0 1
167 0 0 1000000000 0 1 0
168 0 0 1000000000 0 0 1
169 0 0 1000000000 0 1 0
170 0 0 1000000000 0 0 1
171 0 0 1000000000 0 1 0
172 0 0 1000000000 0 0 1
173 0 0 1000000000 0 1 0
174 0 0 1000000000 0 0 1
175 0 0 1000000000 0 1 0
176 0 0 1000000000 0 0 1
177 0 0 1000000000 0 1 0
178 0 0 1000000000 0 0 1
179 0 0 1000000000 0 1 0
180 0 0 1000000000 0 0 1
181 0 0 1000000000 0 1 0
182 0 0 1000000000 0 0 1
183 0 0 1000000000 0 1 0
184 0 0 1000000000 0 0 1
185 0 0 1000000000 0 1 0
186 0 0 1000000000 0 0 1
187 0 0 1000000000 0 1 0
188 0 0 1000000000 0 0 1
189 0 0 1000000000 0 1 0
190 0 0 1000000000 0 0 1
191 0 0 1000000000 0 1 0
192 0 0 1000000000 0 0 1
193 0 0 1000000000 0 1 0
194 0 0 1000000000 0 0 1
195 0 0 1000000000 0 1 0
196 0 0 1000000000 0 0 1
197 0 0 1000000000 0 1 0
198 0 0 1000000000 0 0 1
199 0 0 1000000000 0 1 0
200 0 0 1000000000 0 0 1
201 0 0 1000000000 0 1 0
202 0 0 1000000000 0 0 1
203 0 0 1000000000 0 1 0
204 0 0 1000000000 0 0 1
205 0 0 1000000000 0 1 0
206 0 0 1000000000 0 0 1
207 0 0 1000000000 0 1 0
208 0 0 1000000000 0 0 1
209 0 0 1000000000 0 1 0
210 0 0 1000000000 0 0 1
211 0 0 1000000000 0 1 0
212 0 0 1000000000 0 0 1
213 0 0 1000000000 0 1 0
214 0 0 1000000000 0 0 1
215 0 0 1000000000 0 1 0
216 0 0 1000000000 0 0 1
217 0 0 1000000000 0 1 0
218 0 0 1000000000 0 0 1
219 0 0 1000000000 0 1 0
